crystal structure from CrS2 with Hexagin
   1.00000000000000     
     7.9371692509079415    4.5828542150424481    0.0000000000000000
    -7.9371691246961769    4.5828544336552781    0.0000000000000000
     0.0000000000000000    0.0000000000000000   30.0000000000000000
   Cr   S 
     9    18
Direct
 -0.0000627281297772 -0.0000627281297772 -0.0000000000000000
  0.9999372718023947  0.3332706151126597 -0.0000000000000000
 -0.0000627281085604  0.6666039583966276 -0.0000000000000000
  0.3332706151568057 -0.0000627281227073 -0.0000000000000000
  0.3332706150889702  0.3332706151197296 -0.0000000000000000
  0.3332706151780154  0.6666039584036975 -0.0000000000000000
  0.6666039584433813 -0.0000627281156374 -0.0000000000000000
  0.6666039583755529  0.3332706151267995 -0.0000000000000000
  0.6666039584645981  0.6666039584107674 -0.0000000000000000
  0.1110469120082026  0.2221507355775324  0.9507350495711577
  0.2221507355329317  0.1110469119911780  0.0492649392288410
  0.1110469119403742  0.5554840788199692  0.9507350495711577
  0.2221507356219769  0.4443802552751530  0.0492649392288410
  0.1110469119281529  0.8888173922448851  0.9507350495711577
  0.2221507355541414  0.7777135985175826  0.0492649392288410
  0.4443802552947853  0.2221507355846023  0.9507350495711577
  0.5554840788195073  0.1110469119982550  0.0492649392288410
  0.4443802552269498  0.5554840788270391  0.9507350495711577
  0.5554840787516789  0.4443802552406846  0.0492649392288410
  0.4443802552147285  0.8888173922519550  0.9507350495711577
  0.5554840788407241  0.7777135985246596  0.0492649392288410
  0.7777135984821549  0.2221507354924734  0.9507350495711577
  0.8888173923462440  0.1110469120032643  0.0492649392288410
  0.7777135985135325  0.5554840788341090  0.9507350495711577
  0.8888173922784156  0.4443802552457010  0.0492649392288410
  0.7777135985013112  0.8888173922590320  0.9507350495711577
  0.8888173923097861  0.7777135985873366  0.0492649392288410
 
  0.00000000E+00  0.00000000E+00  0.00000000E+00
  0.00000000E+00  0.00000000E+00  0.00000000E+00
  0.00000000E+00  0.00000000E+00  0.00000000E+00
  0.00000000E+00  0.00000000E+00  0.00000000E+00
  0.00000000E+00  0.00000000E+00  0.00000000E+00
  0.00000000E+00  0.00000000E+00  0.00000000E+00
  0.00000000E+00  0.00000000E+00  0.00000000E+00
  0.00000000E+00  0.00000000E+00  0.00000000E+00
  0.00000000E+00  0.00000000E+00  0.00000000E+00
  0.00000000E+00  0.00000000E+00  0.00000000E+00
  0.00000000E+00  0.00000000E+00  0.00000000E+00
  0.00000000E+00  0.00000000E+00  0.00000000E+00
  0.00000000E+00  0.00000000E+00  0.00000000E+00
  0.00000000E+00  0.00000000E+00  0.00000000E+00
  0.00000000E+00  0.00000000E+00  0.00000000E+00
  0.00000000E+00  0.00000000E+00  0.00000000E+00
  0.00000000E+00  0.00000000E+00  0.00000000E+00
  0.00000000E+00  0.00000000E+00  0.00000000E+00
  0.00000000E+00  0.00000000E+00  0.00000000E+00
  0.00000000E+00  0.00000000E+00  0.00000000E+00
  0.00000000E+00  0.00000000E+00  0.00000000E+00
  0.00000000E+00  0.00000000E+00  0.00000000E+00
  0.00000000E+00  0.00000000E+00  0.00000000E+00
  0.00000000E+00  0.00000000E+00  0.00000000E+00
  0.00000000E+00  0.00000000E+00  0.00000000E+00
  0.00000000E+00  0.00000000E+00  0.00000000E+00
  0.00000000E+00  0.00000000E+00  0.00000000E+00
